p cnf 60 32
e 60 0
e 30 0
e 59 0
e 29 0
e 58 0
e 28 0
e 57 0
e 27 0
e 56 0
e 26 0
e 55 0
e 25 0
e 54 0
e 24 0
e 53 0
e 23 0
e 52 0
e 22 0
e 51 0
e 21 0
a 50 0
a 20 0
a 49 0
a 19 0
a 48 0
a 18 0
a 47 0
a 17 0
a 46 0
a 16 0
a 45 0
a 15 0
a 44 0
a 14 0
a 43 0
a 13 0
a 42 0
a 12 0
a 41 0
a 11 0
e 40 0
e 10 0
e 39 0
e 9 0
e 38 0
e 8 0
e 37 0
e 7 0
e 36 0
e 6 0
e 35 0
e 5 0
e 34 0
e 4 0
e 33 0
e 3 0
e 32 0
e 2 0
e 31 0
e 1 0
-30 0
30 59 -29 -58 -28 0
29 58 -28 -57 -27 0
28 57 -27 -56 -26 0
27 56 -26 -55 -25 0
26 55 -25 -54 -24 0
25 54 -24 -53 -23 0
24 53 -23 -52 -22 0
23 52 -22 -51 -21 0
22 51 -21 -50 -20 0
21 50 -20 -49 -19 0
20 49 -19 -48 -18 0
19 48 -18 -47 -17 0
18 47 -17 -46 -16 0
17 46 -16 -45 -15 0
16 45 -15 -44 -14 0
15 44 -14 -43 -13 0
14 43 -13 -42 -12 0
13 42 -12 -41 -11 0
12 41 -11 -40 -10 0
11 40 -10 -39 -9 0
10 39 -9 -38 -8 0
9 38 -8 -37 -7 0
8 37 -7 -36 -6 0
7 36 -6 -35 -5 0
6 35 -5 -34 -4 0
5 34 -4 -33 -3 0
4 33 -3 -32 -2 0
3 32 -2 -31 -1 0
2 1 0
2 -1 0
-2 1 0
